NAME : tsp50_6.218.tour
COMMENT : Length = 218
COMMENT : Found by LKH [Keld Helsgaun]
TYPE : TOUR
DIMENSION : 50
TOUR_SECTION
1
7
2
5
37
34
33
22
39
44
24
31
41
43
8
26
25
49
47
13
10
23
9
36
21
3
50
29
12
30
19
6
42
4
20
17
11
14
38
46
28
48
16
32
18
27
35
15
45
40
-1
EOF
